Cars = 1..200;
Options = 1..5;
Classes = 1..25;
sequenceMinCapacity = [0, 0, 0, 0, 0];
sequenceMaxCapacity = [1, 2, 1, 2, 1];
sequenceSize = [2, 3, 3, 5, 5];
numOrdered = [1, 1, 2, 2, 43, 5, 4, 5, 6, 3, 2, 5, 1, 18, 18, 16, 27, 7, 1, 4, 8, 7, 2, 8, 4];
classHasOption = [|false, false,  true,  true,  true
                  | true,  true,  true, false,  true
                  |false,  true,  true,  true, false
                  |false,  true,  true, false,  true
                  |false,  true, false, false, false
                  |false,  true, false, false,  true
                  |false, false, false,  true,  true
                  | true, false,  true,  true, false
                  | true, false, false, false,  true
                  | true,  true,  true, false, false
                  | true,  true, false,  true, false
                  | true, false,  true, false, false
                  |false,  true, false,  true,  true
                  | true, false, false, false, false
                  | true,  true, false, false, false
                  |false, false,  true, false, false
                  |false, false, false,  true, false
                  |false,  true,  true, false, false
                  | true, false, false,  true,  true
                  |false, false,  true,  true, false
                  | true, false, false,  true, false
                  |false,  true, false,  true, false
                  |false, false,  true, false,  true
                  |false, false, false, false,  true
                  | true,  true,  true, false, false|];
optionOrdering = [3, 5, 1, 4, 2];
